solution status: optimal solution found
objective value:                     138969.281606786
d11(0,0)                                            1 	(obj:0)
d11(1,1)                                            1 	(obj:0)
d11(1,2)                                            1 	(obj:0)
d11(2,4)                                            1 	(obj:0)
d11(2,5)                                            1 	(obj:0)
d11(2,7)                                            1 	(obj:0)
d11(2,10)                                           1 	(obj:0)
d11(3,13)                                           1 	(obj:0)
d11(3,14)                           0.999999999999934 	(obj:0)
d11(3,16)                                           1 	(obj:0)
d11(3,17)                           0.999999999999934 	(obj:0)
d11(3,19)                                           1 	(obj:0)
d11(3,20)                           0.999999999999934 	(obj:0)
d11(3,22)                                           1 	(obj:0)
d11(3,23)                           0.999999999999934 	(obj:0)
d11(3,25)                                           1 	(obj:0)
d11(3,26)                           0.999999999999934 	(obj:0)
d11(3,28)                                           1 	(obj:0)
d11(3,31)                                           1 	(obj:0)
d11(3,34)                                           1 	(obj:0)
d11(3,37)                                           1 	(obj:0)
d11(3,38)                           0.999999999999934 	(obj:0)
d11(4,40)                                           1 	(obj:0)
d11(4,41)                                           1 	(obj:0)
d11(4,43)                                           1 	(obj:0)
d11(4,44)                                           1 	(obj:0)
d11(4,46)                                           1 	(obj:0)
d11(4,47)                                           1 	(obj:0)
d11(4,49)                                           1 	(obj:0)
d11(4,50)                                           1 	(obj:0)
d11(4,52)                                           1 	(obj:0)
d11(4,53)                                           1 	(obj:0)
d11(4,55)                                           1 	(obj:0)
d11(4,56)                                           1 	(obj:0)
d11(4,58)                                           1 	(obj:0)
d11(4,61)                                           1 	(obj:0)
d11(4,62)                                           1 	(obj:0)
d11(4,64)                                           1 	(obj:0)
d11(4,65)                                           1 	(obj:0)
d11(4,67)                                           1 	(obj:0)
d11(4,70)                                           1 	(obj:0)
d11(4,71)                                           1 	(obj:0)
d11(4,73)                                           1 	(obj:0)
d11(4,74)                                           1 	(obj:0)
d11(4,76)                                           1 	(obj:0)
d11(4,77)                                           1 	(obj:0)
d11(4,79)                                           1 	(obj:0)
d11(4,80)                                           1 	(obj:0)
d11(4,82)                                           1 	(obj:0)
d11(4,85)                                           1 	(obj:0)
d11(4,86)                                           1 	(obj:0)
d11(4,88)                                           1 	(obj:0)
d11(4,89)                                           1 	(obj:0)
d11(4,91)                                           1 	(obj:0)
d11(4,92)                                           1 	(obj:0)
d11(4,94)                                           1 	(obj:0)
d11(4,95)                                           1 	(obj:0)
d11(4,97)                                           1 	(obj:0)
d11(4,98)                                           1 	(obj:0)
d11(4,100)                                          1 	(obj:0)
d11(4,103)                                          1 	(obj:0)
d11(4,104)                                          1 	(obj:0)
d11(4,106)                                          1 	(obj:0)
d11(4,107)                                          1 	(obj:0)
d11(4,109)                                          1 	(obj:0)
d11(4,110)                                          1 	(obj:0)
d11(4,112)                                          1 	(obj:0)
d11(4,113)                                          1 	(obj:0)
d11(4,115)                                          1 	(obj:0)
d11(4,118)                                          1 	(obj:0)
d12(1,3)                                            1 	(obj:0)
d12(2,6)                                            1 	(obj:0)
d12(2,9)                                            1 	(obj:0)
d12(2,12)                                           1 	(obj:0)
d12(3,15)                                           1 	(obj:0)
d12(3,18)                                           1 	(obj:0)
d12(3,21)                                           1 	(obj:0)
d12(3,24)                                           1 	(obj:0)
d12(3,27)                                           1 	(obj:0)
d12(3,30)                                           1 	(obj:0)
d12(3,33)                                           1 	(obj:0)
d12(3,36)                                           1 	(obj:0)
d12(3,39)                                           1 	(obj:0)
d12(4,42)                                           1 	(obj:0)
d12(4,45)                                           1 	(obj:0)
d12(4,48)                                           1 	(obj:0)
d12(4,51)                                           1 	(obj:0)
d12(4,54)                                           1 	(obj:0)
d12(4,57)                                           1 	(obj:0)
d12(4,60)                                           1 	(obj:0)
d12(4,63)                                           1 	(obj:0)
d12(4,66)                                           1 	(obj:0)
d12(4,69)                                           1 	(obj:0)
d12(4,72)                                           1 	(obj:0)
d12(4,75)                                           1 	(obj:0)
d12(4,78)                                           1 	(obj:0)
d12(4,81)                                           1 	(obj:0)
d12(4,84)                                           1 	(obj:0)
d12(4,87)                                           1 	(obj:0)
d12(4,90)                                           1 	(obj:0)
d12(4,93)                                           1 	(obj:0)
d12(4,96)                                           1 	(obj:0)
d12(4,99)                                           1 	(obj:0)
d12(4,102)                                          1 	(obj:0)
d12(4,105)                                          1 	(obj:0)
d12(4,108)                                          1 	(obj:0)
d12(4,111)                                          1 	(obj:0)
d12(4,114)                                          1 	(obj:0)
d12(4,117)                                          1 	(obj:0)
d12(4,120)                                          1 	(obj:0)
d21(2,4)                                            1 	(obj:0)
d21(3,13)                                           1 	(obj:0)
d21(3,14)                                           1 	(obj:0)
d21(3,15)                                           1 	(obj:0)
d21(3,16)                                           1 	(obj:0)
d21(3,17)                                           1 	(obj:0)
d21(3,19)                                           1 	(obj:0)
d21(3,22)                                           1 	(obj:0)
d21(3,23)                                           1 	(obj:0)
d21(3,25)                                           1 	(obj:0)
d21(3,31)                                           1 	(obj:0)
d21(4,40)                                           1 	(obj:0)
d21(4,41)                                           1 	(obj:0)
d21(4,42)                                           1 	(obj:0)
d21(4,43)                                           1 	(obj:0)
d21(4,44)                                           1 	(obj:0)
d21(4,45)                                           1 	(obj:0)
d21(4,46)                                           1 	(obj:0)
d21(4,47)                                           1 	(obj:0)
d21(4,48)                                           1 	(obj:0)
d21(4,49)                                           1 	(obj:0)
d21(4,50)                                           1 	(obj:0)
d21(4,51)                                           1 	(obj:0)
d21(4,52)                                           1 	(obj:0)
d21(4,53)                                           1 	(obj:0)
d21(4,55)                                           1 	(obj:0)
d21(4,58)                                           1 	(obj:0)
d21(4,59)                                           1 	(obj:0)
d21(4,60)                                           1 	(obj:0)
d21(4,61)                                           1 	(obj:0)
d21(4,64)                                           1 	(obj:0)
d21(4,67)                                           1 	(obj:0)
d21(4,68)                                           1 	(obj:0)
d21(4,69)                                           1 	(obj:0)
d21(4,70)                                           1 	(obj:0)
d21(4,71)                                           1 	(obj:0)
d21(4,73)                                           1 	(obj:0)
d21(4,76)                                           1 	(obj:0)
d21(4,77)                                           1 	(obj:0)
d21(4,79)                                           1 	(obj:0)
d21(4,85)                                           1 	(obj:0)
d21(4,88)                                           1 	(obj:0)
d21(4,94)                                           1 	(obj:0)
d21(4,95)                                           1 	(obj:0)
d21(4,96)                                           1 	(obj:0)
d21(4,97)                                           1 	(obj:0)
d21(4,100)                                          1 	(obj:0)
d21(4,103)                                          1 	(obj:0)
d21(4,112)                                          1 	(obj:0)
y2(4,102)                            960.592982999987 	(obj:0)
y2(4,105)                            960.592982999987 	(obj:0)
y2(4,108)                            960.592982999987 	(obj:0)
y2(4,111)                            960.592982999987 	(obj:0)
y2(4,114)                            960.592982999987 	(obj:0)
y2(4,117)                            960.592982999987 	(obj:0)
y2(4,120)                            960.592982999987 	(obj:0)
STE(1,1)                             4379.43666615007 	(obj:0)
STE(0,0)                                         6300 	(obj:0)
STE(1,2)                             5376.20266948336 	(obj:0)
STE(1,3)                             6334.98654615253 	(obj:0)
STE(2,4)                             2878.67066281678 	(obj:0)
STE(2,5)                             3875.43666615007 	(obj:0)
STE(2,6)                             4788.00000000006 	(obj:0)
STE(2,7)                             3875.43666615007 	(obj:0)
STE(2,8)                             4872.20266948336 	(obj:0)
STE(2,9)                             5784.76600333335 	(obj:0)
STE(2,10)                            4834.22054281924 	(obj:0)
STE(2,11)                            5830.98654615253 	(obj:0)
STE(2,12)                            6743.54988000252 	(obj:0)
STE(3,13)                            1377.90465948374 	(obj:0)
STE(3,14)                            2374.67066281678 	(obj:0)
STE(3,15)                            3287.23399666704 	(obj:0)
STE(3,16)                            2374.67066281703 	(obj:0)
STE(3,17)                            3371.43666615007 	(obj:0)
STE(3,18)                            4284.00000000033 	(obj:0)
STE(3,19)                            3287.23399666702 	(obj:0)
STE(3,20)                            4284.00000000006 	(obj:0)
STE(3,21)                            5196.56333385032 	(obj:0)
STE(3,22)                            2374.67066281703 	(obj:0)
STE(3,23)                            3371.43666615007 	(obj:0)
STE(3,24)                            4284.00000000033 	(obj:0)
STE(3,25)                            3371.43666615032 	(obj:0)
STE(3,26)                            4368.20266948336 	(obj:0)
STE(3,27)                            5280.76600333362 	(obj:0)
STE(3,28)                             4284.0000000003 	(obj:0)
STE(3,29)                            5280.76600333335 	(obj:0)
STE(3,30)                            6193.32933718361 	(obj:0)
STE(3,31)                            3333.45453948619 	(obj:0)
STE(3,32)                            4330.22054281924 	(obj:0)
STE(3,33)                             5242.7838766695 	(obj:0)
STE(3,34)                            4330.22054281948 	(obj:0)
STE(3,35)                            5326.98654615253 	(obj:0)
STE(3,36)                            6239.54988000279 	(obj:0)
STE(3,37)                            5242.78387666947 	(obj:0)
STE(3,38)                            6239.54988000252 	(obj:0)
STE(3,39)                            7152.11321385278 	(obj:0)
STE(4,40)                           -122.861343849614 	(obj:0)
STE(4,41)                            873.904659483736 	(obj:0)
STE(4,42)                            1786.46799333372 	(obj:0)
STE(4,43)                            873.904659483433 	(obj:0)
STE(4,44)                            1870.67066281678 	(obj:0)
STE(4,45)                            2783.23399666677 	(obj:0)
STE(4,46)                            1786.46799333369 	(obj:0)
STE(4,47)                            2783.23399666704 	(obj:0)
STE(4,48)                            3695.79733051703 	(obj:0)
STE(4,49)                            873.904659483677 	(obj:0)
STE(4,50)                            1870.67066281703 	(obj:0)
STE(4,51)                            2783.23399666701 	(obj:0)
STE(4,52)                            1870.67066281672 	(obj:0)
STE(4,53)                            2867.43666615007 	(obj:0)
STE(4,54)                            3780.00000000006 	(obj:0)
STE(4,55)                            2783.23399666698 	(obj:0)
STE(4,56)                                        3780 	(obj:0)
STE(4,57)                            4692.56333385032 	(obj:0)
STE(4,58)                            1786.46799333367 	(obj:0)
STE(4,59)                            2783.23399666702 	(obj:0)
STE(4,60)                              3695.797330517 	(obj:0)
STE(4,61)                            2783.23399666671 	(obj:0)
STE(4,62)                            3780.00000000006 	(obj:0)
STE(4,63)                            4692.56333385005 	(obj:0)
STE(4,64)                            3695.79733051697 	(obj:0)
STE(4,65)                            4692.56333385032 	(obj:0)
STE(4,66)                            5605.12666770031 	(obj:0)
STE(4,67)                            873.904659483677 	(obj:0)
STE(4,68)                            1870.67066281703 	(obj:0)
STE(4,69)                            2783.23399666701 	(obj:0)
STE(4,70)                            1870.67066281672 	(obj:0)
STE(4,71)                            2867.43666615007 	(obj:0)
STE(4,72)                            3780.00000000006 	(obj:0)
STE(4,73)                            2783.23399666698 	(obj:0)
STE(4,74)                            3780.00000000033 	(obj:0)
STE(4,75)                            4692.56333385032 	(obj:0)
STE(4,76)                            1870.67066281697 	(obj:0)
STE(4,77)                            2867.43666615032 	(obj:0)
STE(4,78)                             3780.0000000003 	(obj:0)
STE(4,79)                            2867.43666615001 	(obj:0)
STE(4,80)                            3864.20266948336 	(obj:0)
STE(4,81)                            4776.76600333335 	(obj:0)
STE(4,82)                            3780.00000000027 	(obj:0)
STE(4,83)                            4776.76600333362 	(obj:0)
STE(4,84)                            5689.32933718361 	(obj:0)
STE(4,85)                            2783.23399666695 	(obj:0)
STE(4,86)                             3780.0000000003 	(obj:0)
STE(4,87)                            4692.56333385029 	(obj:0)
STE(4,88)                                        3780 	(obj:0)
STE(4,89)                            4776.76600333335 	(obj:0)
STE(4,90)                            5689.32933718334 	(obj:0)
STE(4,91)                            4692.56333385026 	(obj:0)
STE(4,92)                            5689.32933718355 	(obj:0)
STE(4,93)                             6601.8926710336 	(obj:0)
STE(4,94)                            1832.68853615284 	(obj:0)
STE(4,95)                            2829.45453948619 	(obj:0)
STE(4,96)                            3742.01787333618 	(obj:0)
STE(4,97)                            2829.45453948589 	(obj:0)
STE(4,98)                            3826.22054281918 	(obj:0)
STE(4,99)                            4738.78387666923 	(obj:0)
STE(4,100)                           3742.01787333615 	(obj:0)
STE(4,101)                            4738.7838766695 	(obj:0)
STE(4,102)                           5651.34721051949 	(obj:0)
STE(4,103)                           2829.45453948614 	(obj:0)
STE(4,104)                           3826.22054281949 	(obj:0)
STE(4,105)                           4738.78387666947 	(obj:0)
STE(4,106)                           3826.22054281918 	(obj:0)
STE(4,107)                           4822.98654615253 	(obj:0)
STE(4,108)                           5735.54988000252 	(obj:0)
STE(4,109)                           4738.78387666944 	(obj:0)
STE(4,110)                           5735.54988000273 	(obj:0)
STE(4,111)                           6648.11321385278 	(obj:0)
STE(4,112)                           3742.01787333612 	(obj:0)
STE(4,113)                           4738.78387666947 	(obj:0)
STE(4,114)                           5651.34721051946 	(obj:0)
STE(4,115)                           4738.78387666917 	(obj:0)
STE(4,116)                           5735.54988000252 	(obj:0)
STE(4,117)                           6648.11321385251 	(obj:0)
STE(4,118)                           5651.34721051943 	(obj:0)
STE(4,119)                           6648.11321385278 	(obj:0)
STE(4,120)                           7560.67654770276 	(obj:0)
y1(4,100)                            897.089403000015 	(obj:0)
y1(4,103)                            897.089403000015 	(obj:0)
y1(4,106)                            897.089403000015 	(obj:0)
y1(4,109)                            897.089403000015 	(obj:0)
y1(4,112)                            897.089403000015 	(obj:0)
y1(4,115)                            897.089403000015 	(obj:0)
y1(4,118)                            897.089403000015 	(obj:0)
WB(3)                                 3399.3204933139 	(obj:0)
AVE(3)                                3399.3204933139 	(obj:0)
AVE(4)                               3353.21046544222 	(obj:0)
y2(4,99)                             960.592982999987 	(obj:0)
WG(4)                                3353.21046544222 	(obj:10)
BG(1)                                3763.37816067849 	(obj:10)
BG(2)                                3377.84999999995 	(obj:10)
BG(3)                                3377.84999999972 	(obj:10)
BG(4)                                24.6395345577802 	(obj:10)
WB(1)                                3134.60043707458 	(obj:0)
AVE(1)                               3134.60043707458 	(obj:0)
WB(2)                                3326.45170866638 	(obj:0)
AVE(2)                               3326.45170866643 	(obj:0)
y1(1,1)                              1274.90700046493 	(obj:0)
y1(1,2)                              377.817597464973 	(obj:0)
y1(2,4)                              897.089402999962 	(obj:0)
y1(2,7)                              897.089402999962 	(obj:0)
y1(2,10)                             897.089402999962 	(obj:0)
y1(3,13)                             897.089402999742 	(obj:0)
y1(3,16)                             897.089402999742 	(obj:0)
y1(3,19)                             897.089402999742 	(obj:0)
y1(3,22)                             897.089402999742 	(obj:0)
y1(3,25)                             897.089402999742 	(obj:0)
y1(3,28)                             897.089402999742 	(obj:0)
y1(3,31)                             897.089402999742 	(obj:0)
y1(3,34)                             897.089402999742 	(obj:0)
y1(3,37)                             897.089402999742 	(obj:0)
y1(4,40)                             897.089403000015 	(obj:0)
y1(4,43)                             897.089403000015 	(obj:0)
y1(4,46)                             897.089403000015 	(obj:0)
y1(4,49)                             897.089403000015 	(obj:0)
y1(4,52)                             897.089403000015 	(obj:0)
y1(4,55)                             897.089403000015 	(obj:0)
y1(4,58)                             897.089403000015 	(obj:0)
y1(4,61)                             897.089403000015 	(obj:0)
y1(4,64)                             897.089403000015 	(obj:0)
y1(4,67)                             897.089403000015 	(obj:0)
y1(4,70)                             897.089403000015 	(obj:0)
y1(4,73)                             897.089403000015 	(obj:0)
y1(4,76)                             897.089403000015 	(obj:0)
y1(4,79)                             897.089403000015 	(obj:0)
y1(4,82)                             897.089403000015 	(obj:0)
y1(4,85)                             897.089403000015 	(obj:0)
y1(4,88)                             897.089403000015 	(obj:0)
y1(4,91)                             897.089403000015 	(obj:0)
y1(4,94)                             897.089403000015 	(obj:0)
y1(4,97)                             897.089403000015 	(obj:0)
y2(1,3)                              567.354259107928 	(obj:0)
y2(2,6)                              960.592982999987 	(obj:0)
y2(2,9)                              960.592982999987 	(obj:0)
y2(2,12)                             960.592982999987 	(obj:0)
y2(3,15)                             960.592983000271 	(obj:0)
y2(3,18)                             960.592983000271 	(obj:0)
y2(3,21)                             960.592983000271 	(obj:0)
y2(3,24)                             960.592983000271 	(obj:0)
y2(3,27)                             960.592983000271 	(obj:0)
y2(3,30)                             960.592983000271 	(obj:0)
y2(3,33)                             960.592983000271 	(obj:0)
y2(3,36)                             960.592983000271 	(obj:0)
y2(3,39)                             960.592983000271 	(obj:0)
y2(4,42)                             960.592982999987 	(obj:0)
y2(4,45)                             960.592982999987 	(obj:0)
y2(4,48)                             960.592982999987 	(obj:0)
y2(4,51)                             960.592982999987 	(obj:0)
y2(4,54)                             960.592982999987 	(obj:0)
y2(4,57)                             960.592982999987 	(obj:0)
y2(4,60)                             960.592982999987 	(obj:0)
y2(4,63)                             960.592982999987 	(obj:0)
y2(4,66)                             960.592982999987 	(obj:0)
y2(4,69)                             960.592982999987 	(obj:0)
y2(4,72)                             960.592982999987 	(obj:0)
y2(4,75)                             960.592982999987 	(obj:0)
y2(4,78)                             960.592982999987 	(obj:0)
y2(4,81)                             960.592982999987 	(obj:0)
y2(4,84)                             960.592982999987 	(obj:0)
y2(4,87)                             960.592982999987 	(obj:0)
y2(4,90)                             960.592982999987 	(obj:0)
y2(4,93)                             960.592982999987 	(obj:0)
y2(4,96)                             960.592982999987 	(obj:0)
